c Created with the Wolfram Language : www.wolfram.com
c 
p edge 100 233
e 14 17
e 12 20
e 17 21
e 14 22
e 16 22
e 17 23
e 9 24
e 2 25
e 7 25
e 8 25
e 7 26
e 14 26
e 12 27
e 22 27
e 23 27
e 15 28
e 3 29
e 10 30
e 30 31
e 23 32
e 1 34
e 9 34
e 7 35
e 13 35
e 11 36
e 12 36
e 28 38
e 30 38
e 7 39
e 17 39
e 25 39
e 33 39
e 38 39
e 38 40
e 17 41
e 26 41
e 11 42
e 35 43
e 7 44
e 11 44
e 30 44
e 22 45
e 28 45
e 16 47
e 20 47
e 25 47
e 46 47
e 18 48
e 24 48
e 28 48
e 2 49
e 45 49
e 4 50
e 42 50
e 13 51
e 21 51
e 38 51
e 30 52
e 37 52
e 41 52
e 12 53
e 16 53
e 35 53
e 39 53
e 43 53
e 2 54
e 14 55
e 16 55
e 23 55
e 36 55
e 51 55
e 54 55
e 9 56
e 55 56
e 36 57
e 52 57
e 4 58
e 17 58
e 30 58
e 32 58
e 25 59
e 6 60
e 43 60
e 46 60
e 2 61
e 3 61
e 11 61
e 41 61
e 1 62
e 29 62
e 41 62
e 51 62
e 5 63
e 9 63
e 16 63
e 20 64
e 46 64
e 47 64
e 62 64
e 8 65
e 29 65
e 31 65
e 46 65
e 9 66
e 30 66
e 59 66
e 1 67
e 7 67
e 10 67
e 33 67
e 57 67
e 29 68
e 32 68
e 58 68
e 53 69
e 40 70
e 61 70
e 13 71
e 11 72
e 42 72
e 43 72
e 50 72
e 51 72
e 64 72
e 1 73
e 7 73
e 10 73
e 24 73
e 26 73
e 70 73
e 45 74
e 56 74
e 13 75
e 32 75
e 44 75
e 51 75
e 24 76
e 66 76
e 30 77
e 41 77
e 45 77
e 62 77
e 67 77
e 71 77
e 36 78
e 44 78
e 57 78
e 62 78
e 3 79
e 9 79
e 62 79
e 73 79
e 19 80
e 40 80
e 47 80
e 50 80
e 60 80
e 72 80
e 19 81
e 31 81
e 33 81
e 42 82
e 44 82
e 46 82
e 71 82
e 73 82
e 46 83
e 16 84
e 17 84
e 72 84
e 12 85
e 25 85
e 63 85
e 4 86
e 35 86
e 13 87
e 17 87
e 36 87
e 51 87
e 53 87
e 62 87
e 67 87
e 20 88
e 55 88
e 57 88
e 80 88
e 4 89
e 17 89
e 52 89
e 61 89
e 67 89
e 74 89
e 82 89
e 85 89
e 87 89
e 25 90
e 49 90
e 20 91
e 60 91
e 72 91
e 87 91
e 27 92
e 30 92
e 47 93
e 67 93
e 70 93
e 75 93
e 83 93
e 66 94
e 67 94
e 72 94
e 74 94
e 33 95
e 57 95
e 73 95
e 79 95
e 93 95
e 12 96
e 1 97
e 18 97
e 37 97
e 44 97
e 66 97
e 67 97
e 3 98
e 27 98
e 44 98
e 24 99
e 49 99
e 54 99
e 58 99
e 89 99
e 28 100
